(declare-const |d'| Int)
(declare-const K Int)
(declare-const e Int)
(declare-const |e'0| Int)
(declare-const |e'| Int)
(declare-const term_to_project_onto Real)
(declare-const term_to_project_onto0 Real)
(declare-const d Int)
(assert (and (<= (+ (- e) 1) 0) (<= (- d) 0) (<= (+ d -5) 0)
               (= (+ (- |e'0|) K) 0)
               (or (and (= K 0) (= (- |e'0|) 0))
                     (and (<= (+ (- K) 1) 0) (<= (+ |e'0| -6) 0)
                            (<= (+ (- |e'0|) 1) 0))) (<= (- K) 0)
               (<= (- |e'0|) 0) (<= (+ (- |e'0|) 6) 0)
               (= (+ |e'| (- |e'0|)) 0) (= (+ |d'| (- d) -1) 0)
               (= term_to_project_onto0 (+ |d'| (- d)))
               (= term_to_project_onto (+ |e'| (- e)))))
(check-sat)
